VOCs = {heptane, octane, methyl_acetate, two_butanone, ethyl_acetate, methyl_propanoate, two_methyl_butanal,
 isovaleraldehyde, ethyl_propanoate, three_pentanone, valeraldehyde, ethyl_vinyl_ketone,
 two_butanol, ethyl_butanoate, propanol, buthyl_acetate, hexanal, isobutanol, two_pentanol, 
 E_two_pentenal, Z_three_hexenal, one_penten_three_ol, two_heptanone,
  heptanal, limonene, two_methyl_one_butanol_plus_three_methyl_one_butanol,
 E_two_hexenal, ocimene, pentanol, hexyl_acetate, two_octanone, octanal, one_octen_three_one,
  E_two_pentenol, Z_three_hexenyl_acetate, E_two_heptenal, two_heptanol, Z_two_pentenol, E_two_hexenyl_acetate, six_methyl_five_hepten_two_one,
   hexanol, E_three_hexenol, Z_three_hexenol, two_nonanone, nonanal, two_four_hexadienal, E_two_hexenol,
    Z_two_hexenol, two_octanol, E_two_octenal, one_octen_three_ol, heptanol, two_four_heptadienal, decanal,
     benzaldehyde, E_two_nonenal, propanoic_acid, octanol, butanoic_acid, E_two_decenal, nonanol,
      two_four_nonadienal, pentanoic_acid, two_four_decadienal, hexanoic_acid, guaiacol, phenyl_ethanol, phenol, four_ethylguaiacol, four_ethyl_phenol};

%OilsNamesPlaceholder
Oils = {Lampante_virgin_olive_oil_Rancid, 
Lampante_virgin_olive_oil_Musty, 
Commercial_extra_virgin_olive_oil_Northern_Italy,
Commercial_extra_virgin_olive_oil_Southern_Italyone,
Commercial_extra_virgin_olive_oil_Southern_Italytwo, 
Commercial_extra_virgin_olive_oil_France,
Commercial_extra_virgin_olive_oil_Spain, 
Commercial_extra_virgin_olive_oil_South_Africa, 
Commercial_extra_virgin_live_oil_Portugal, 
Commercial_extra_virgin_olive_oil_Tunisia };

Target_name = "Commercial_extra_virgin_olive_oils_Central_Italy";

threshold = [694.0, 60.0, 206.0, 40.0, 50.9, 465.0, 778.0, 54.0, 198.0, 789.0, 613.0, 915.0, 123.0, 98.0, 688.0, 200.0, 129.0, 814.0, 255.0, 785.0, 227.0, 310.0, 268.0, 90.0, 186.0, 590.0, 936.0, 2.0, 897.0, 669.0, 903.0, 568.0, 139.0, 301.0, 84.0, 960.0, 221.0, 638.0, 927.0, 411.0, 691.0, 702.0, 787.0, 30.0, 806.0, 374.0, 415.0, 572.0, 236.0, 947.0, 960.0, 43.0, 711.0, 807.0, 727.0, 580.0, 501.0, 82.0, 54.0, 536.0, 971.0, 564.0, 730.0, 520.0, 504.0, 928.0, 892.0, 177.0, 48.0, 278.0] ;

sensitivity = [5.0, 9.0, 8.0, 7.0, 3.0, 9.0, 6.0, 5.0, 6.0, 6.0, 5.0, 7.0, 4.0, 5.0, 6.0, 10.0, 0.0, 3.0, 0.0, 0.0, 4.0, 4.0, 7.0, 2.0, 6.0, 8.0, 9.0, 8.0, 4.0, 2.0, 10.0, 10.0, 3.0, 5.0, 4.0, 7.0, 0.0, 4.0, 6.0, 4.0, 2.0, 8.0, 7.0, 9.0, 9.0, 6.0, 6.0, 6.0, 9.0, 8.0, 3.0, 2.0, 7.0, 6.0, 1.0, 6.0, 9.0, 2.0, 4.0, 6.0, 2.0, 6.0, 9.0, 0.0, 10.0, 4.0, 4.0, 1.0, 7.0, 3.0];

costs = [30.0,30.0,30.0,30.0,30.0,30.0,30.0,30.0,30.0,30.0];
costs_target = 30.0 ;
MAX_COST = 100.0;

concentrations_target = [0,0,0.03,0.06,0.03,0.014,0.04,0,0, 0.28,0.17,0.46,0,0.05,0,0.21,0,0,0,0.09,0.39,0.55, 0,0,0,0.05,8.61,0.03,0.02,0.28,0,0,0.10,0.25, 0.86, 0.03,0.05, 0.12, 0.09, 0, 0.64, 0.05 , 0.98, 0.23, 11.15, 0.41, 0.97 , 0.05, 0.05,0, 0.05, 0.04,0, 0, 0.04, 0.02,0.04, 0.06, 0.03, 0,0.27,0.05, 0, 0.14,0, 0, 0.31,0.10,0,0];
                      
concentrations = [| 0.93, 0, 0, 0, 0, 0, 0, 0, 0, 0,
                  | 1.50, 0.14, 0,  0, 0, 0, 0, 0, 0, 0.18,
                  | 0.04, 0.31, 0.06,  0.04, 0.03, 0.03, 0.05, 0.31, 0.11, 0.18, 
                  | 0, 0.03, 0.06,  0.06, 0.06, 0.06, 0.05, 0.06, 0.06, 0.06, 
                  | 0, 0.26, 0,  0.04, 0, 0, 0.03, 0.03, 0.41, 0.57,
                  | 0.01, 0.01, 0.013,  0.015, 0.017, 0.019, 0.011, 0.011, 0.024, 0.021, 
                  | 0, 0, 0.03, 0.14,  0.03, 0.09, 0.07, 0.08, 0.06, 0.13,
                  | 0, 0, 0,  0, 0, 0, 0, 0.03, 0, 0.07,
                  | 0, 0, 0,  0, 0, 0, 0, 0, 0, 0,
                  | 0, 0.12, 0.09,  0.16, 0.11, 0.18, 0.20, 0.14, 0.42, 0.27,
                  | 1.10, 1.56, 0.16,  0.22, 0.20, 0.20, 0.14, 0.13, 0.26, 0.30,
                  | 0.01, 0.01, 0.56,  0.68, 0.50, 0.34, 0.53, 0.57, 0.23, 0.13,
                  | 0, 0, 0,  0, 0, 0, 0, 0, 0, 0,
                  | 0.02, 0.02, 0.05,  0.06, 0.05, 0.05, 0.05, 0.05, 0.06, 0.04,
                  | 0, 0.03, 0,  0, 0, 0, 0, 0, 0.04, 0.03,
                  | 0.07, 0.07, 0.16,  0.23, 0.25, 0.16, 0.18, 0.24, 0.13, 0.26,
                  | 5.16, 5.06, 0,  0.31, 0.73, 0, 0, 0.69, 0, 1.01,
                  | 0.04, 0.03, 0,  0, 0, 0, 0, 0, 0, 0.12,
                  | 0, 0, 0,  0, 0, 0, 0, 0, 0, 0,
                  | 0.05, 0.13, 0.16,  0.09, 0.07, 0.09, 0.11, 0.14, 0.09, 0.07,
                  | 0, 0.03, 0.50,  0.55, 0.47, 0.21, 0.32, 0.53, 0.27, 0.16,
                  | 0.02, 0.14, 0.18,  0.67, 0.62, 0.34, 0.50, 0.50, 0.27, 0.25,
                  | 1.49, 0.01, 0,  0, 0, 0, 0, 0, 0, 0,
                  | 2.06, 0.28, 0,  0, 0, 0, 0, 0, 0, 0,
                  | 0, 0.03, 0,  0, 0, 0.03, 0, 0.11, 0, 0,
                  | 0, 0, 0.04,  0.05, 0.04, 0.05, 0.05, 0.05, 0.08, 0.13,
                  | 0, 0.17, 11.34,  16.43, 11.00, 4.46, 3.07, 2.17, 5.62, 3.47,
                  | 0, 0.02, 0.03,  0.04, 0.03, 0.03, 0, 0.03, 0.03, 0.05,
                  | 0.16, 0.05, 0,  0.02, 0.02, 0.02, 0.02, 0.02, 0.04, 0.04,
                  | 0.04, 0.07, 0.13,  0.11, 0.10, 0.41, 0.14, 0.09, 0.15, 0.11,
                  | 0.46, 0, 0,  0, 0, 0, 0, 0, 0, 0,
                  | 3.20, 0, 0,  0, 0, 0, 0, 0, 0, 0,
                  | 0.03, 0.06, 0.11,  0.10, 0.04, 0.04, 0.10, 0.04, 0.09, 0.08,
                  | 0, 0, 0.19,  0.27, 0.33, 0.16, 0.31, 0.24, 0.14, 0.09,
                  | 0.11, 0.19, 0.35,  0.29, 0.51, 2.17, 1.09, 0.28, 0.77, 0.29,
                  | 0.41, 0.45, 0,  0.06, 0, 0, 0, 0, 0, 0.34,
                  | 0.03, 0.02, 0.05,  0.05, 0.05, 0.05, 0.05, 0.05, 0.05, 0.05,
                  | 0, 0, 0.08, 0.12,  0.12, 0.09, 0.13, 0.13, 0.08, 0.08,
                  | 0, 0.02, 0.07, 0.09,  0.07, 0.07, 0.07, 0.06, 0.07, 0.07,
                  | 0, 2.76, 0,  0, 0, 0, 0, 0, 0, 0,
                  | 0.17, 0, 0.45, 0.48, 0.49, 0.45, 0.51, 0.36, 0.74, 0.53,
                  | 0, 0 ,0.04,  0.04 , 0.04, 0.05, 0.06, 0.04, 0.08, 0.04,
                  | 0, 0.05, 0.50,  0.47, 0.69, 0.84 , 2.24, 0.44, 1.93 , 0.32,
                  | 1.09, 0, 0.07,  0.14, 0.11, 0.03, 0.05, 0, 0.36, 0.06,
                  | 2.65, 2.43 , 4.22 ,  6.68, 4.94, 2.22,1.66, 0.95, 17.50, 5.66,
                  | 0, 0, 0.48, 0.41,  0.49, 0.16, 0.28, 0.37, 0.23, 0.06,
                  | 0.26, 0.29, 0.65,  0.72 , 0.70, 0.57, 0.55, 0.53, 1.22, 0.71,
                  | 0, 0, 0.03, 0.05,  0.04, 0.03, 0.03, 0.03, 0.06, 0.04,
                  | 0.02, 0, 0.04,  0.05, 0.04, 0.04, 0.05, 0.04, 0.04, 0.04,
                  | 0.92, 0, 0,  0, 0, 0, 0, 0, 0, 0,
                  | 0.08, 0, 0.04,  0.04 , 0.04, 0.04 , 0.04, 0.04, 0.04 , 0.05,
                  | 0.17, 0.02, 0.04,  0.04, 0.04, 0.04, 0.04, 0.04, 0.04, 0.05,
                  | 0.71, 0.24, 0 , 0, 0.06, 0.18, 0, 0.07, 0, 0,
                  | 3.32, 0.62, 0,  0, 0.31, 0.74, 0, 0.27, 0, 0,
                  | 0, 0.08, 0.03,  0.06, 0, 0.06, 0.03, 0.03, 0.03, 0.03,
                  | 0.66, 0.04, 0.03,  0.03, 0, 0, 0.03, 0.15, 0, 0.06,
                  | 0.86, 0.82, 0,  0, 0, 0, 0, 0, 0, 0,
                  | 0.15, 0.03, 0.05,  0.05, 0.04, 0.04, 0.04, 0.04, 0.04, 0.06,
                  | 1.31, 0.18, 0,  0.03 , 0, 0.03 , 0.03, 0.06, 0.03, 0.05,
                  | 1.02, 0, 0,  0, 0, 0, 0, 0, 0, 0,
                  | 0.35, 0.16 , 0.26, 0.27, 0.25, 0.25, 0.26, 0.25, 0.26, 0.28,
                  | 0.17, 0.12 , 0.05,  0.05, 0.03, 0.03, 0.06, 0.11, 0.03, 0.07,
                  | 2.65, 0.48, 0,  0, 0, 0, 0, 0, 0, 0,
                  | 0.54, 0, 0.12,  0, 0, 0.13, 0, 0.16, 0, 0,
                  | 7.47, 1.16, 0,  0, 0, 0, 0, 0, 0, 0.04,
                  | 0, 0.54, 0,  0, 0, 0, 0, 0, 0, 0,
                  | 0, 0.31, 0.14 ,  0.14 , 0.16, 0.28, 0.12, 0.11, 0.14, 0.22,
                  | 0 ,0.22, 0.03,  0.07, 0.07, 0.05 , 0.05, 0.08 , 0.07, 0.06, 
                  | 0 , 0.35, 0,  0, 0, 0, 0, 0, 0, 0,
                  | 0 , 2.14, 0,  0, 0, 0, 0 , 0, 0, 0.07
                  |];


